N = 25;
M = 76;
R0 = 20;
Start = 1;
End = 25;
Edge =  [| 1 ,6 ,
         | 1 ,7 ,
         | 2 ,7 ,
         | 2 ,8 ,
         | 2 ,6 ,
         | 3 ,8 ,
         | 3 ,9 ,
         | 3 ,7 ,
         | 4 ,9 ,
         | 4 ,10 ,
         | 4 ,8 ,
         | 5 ,10 ,
         | 5 ,9 ,
         | 6 ,7 ,
         | 6 ,11 ,
         | 6 ,12 ,
         | 7 ,8 ,
         | 7 ,6 ,
         | 7 ,12 ,
         | 7 ,13 ,
         | 7 ,11 ,
         | 8 ,9 ,
         | 8 ,7 ,
         | 8 ,13 ,
         | 8 ,14 ,
         | 8 ,12 ,
         | 9 ,10 ,
         | 9 ,8 ,
         | 9 ,14 ,
         | 9 ,15 ,
         | 9 ,13 ,
         | 10 ,9 ,
         | 10 ,15 ,
         | 10 ,14 ,
         | 11 ,12 ,
         | 11 ,16 ,
         | 11 ,17 ,
         | 12 ,13 ,
         | 12 ,11 ,
         | 12 ,17 ,
         | 12 ,18 ,
         | 12 ,16 ,
         | 13 ,14 ,
         | 13 ,12 ,
         | 13 ,18 ,
         | 13 ,19 ,
         | 13 ,17 ,
         | 14 ,15 ,
         | 14 ,13 ,
         | 14 ,19 ,
         | 14 ,20 ,
         | 14 ,18 ,
         | 15 ,14 ,
         | 15 ,20 ,
         | 15 ,19 ,
         | 16 ,17 ,
         | 16 ,21 ,
         | 16 ,22 ,
         | 17 ,18 ,
         | 17 ,16 ,
         | 17 ,22 ,
         | 17 ,23 ,
         | 17 ,21 ,
         | 18 ,19 ,
         | 18 ,17 ,
         | 18 ,23 ,
         | 18 ,24 ,
         | 18 ,22 ,
         | 19 ,20 ,
         | 19 ,18 ,
         | 19 ,24 ,
         | 19 ,25 ,
         | 19 ,23 ,
         | 20 ,19 ,
         | 20 ,25 ,
         | 20 ,24 |];

L = [1 ,1 ,6 ,1 ,10 ,8 ,3 ,9 ,2 ,2 ,9 ,5 ,5 ,5 ,8 ,9 ,6 ,7 ,2 ,3 ,4 ,6 ,3 ,1 ,1 ,3 ,8 ,7 ,6 ,8 ,10 ,9 ,5 ,7 ,9 ,7 ,6 ,10 ,6 ,2 ,1 ,4 ,6 ,2 ,2 ,2 ,8 ,6 ,7 ,4 ,6 ,8 ,6 ,1 ,3 ,6 ,1 ,4 ,7 ,7 ,5 ,10 ,2 ,7 ,5 ,7 ,5 ,1 ,4 ,7 ,2 ,5 ,3 ,3 ,6 ,4];
D = [2 ,2 ,4 ,1 ,8 ,3 ,2 ,8 ,9 ,10 ,10 ,9 ,8 ,4 ,9 ,2 ,3 ,3 ,10 ,2 ,3 ,2 ,5 ,7 ,3 ,5 ,1 ,6 ,10 ,1 ,3 ,8 ,2 ,7 ,2 ,5 ,2 ,5 ,8 ,7 ,5 ,9 ,5 ,10 ,7 ,7 ,9 ,4 ,3 ,5 ,9 ,9 ,3 ,10 ,9 ,3 ,2 ,1 ,6 ,5 ,7 ,3 ,5 ,7 ,9 ,5 ,10 ,6 ,8 ,5 ,8 ,7 ,7 ,5 ,10 ,3];
R = [5 ,1 ,1 ,3 ,5 ,1 ,1 ,2 ,4 ,1 ,1 ,1 ,3 ,2 ,1 ,1 ,4 ,1 ,4 ,5 ,1 ,5 ,4 ,3 ,3 ,2 ,5 ,4 ,4 ,4 ,4 ,3 ,2 ,1 ,4 ,2 ,2 ,2 ,1 ,2 ,1 ,1 ,4 ,3 ,2 ,2 ,2 ,5 ,5 ,1 ,2 ,4 ,2 ,2 ,1 ,1 ,2 ,4 ,2 ,5 ,3 ,5 ,3 ,5 ,1 ,2 ,4 ,4 ,2 ,1 ,4 ,4 ,4 ,5 ,3 ,5];
Balance = [1 ,0 ,0 ,0 ,0 ,0 ,0 ,0 ,0 ,0 ,0 ,0 ,0 ,0 ,0 ,0 ,0 ,0 ,0 ,0 ,0 ,0 ,0 ,0 ,-1];
